21° run output:
{
    "Function": "ClusterA300.tsp",
    "Problem dimension": [
        234,
        45,
        166,
        57,
        210,
        127,
        290,
        58,
        118,
        175,
        134,
        92,
        0,
        67,
        182,
        224,
        52,
        96,
        78,
        81,
        145,
        227,
        174,
        146,
        142,
        250,
        148,
        82,
        264,
        17,
        104,
        217,
        8,
        159,
        259,
        294,
        10,
        49,
        218,
        211,
        149,
        239,
        271,
        171,
        214,
        254,
        157,
        44,
        121,
        125,
        187,
        122,
        202,
        268,
        6,
        205,
        5,
        15,
        237,
        76,
        179,
        229,
        263,
        105,
        25,
        106,
        47,
        178,
        66,
        70,
        242,
        22,
        255,
        150,
        89,
        249,
        296,
        236,
        103,
        245,
        199,
        19,
        36,
        139,
        112,
        24,
        252,
        32,
        244,
        173,
        261,
        55,
        219,
        164,
        212,
        73,
        257,
        31,
        193,
        130,
        41,
        209,
        53,
        189,
        256,
        235,
        56,
        74,
        28,
        135,
        116,
        123,
        293,
        131,
        85,
        167,
        206,
        34,
        12,
        30,
        192,
        50,
        155,
        208,
        94,
        90,
        102,
        143,
        111,
        35,
        276,
        63,
        190,
        274,
        86,
        246,
        11,
        39,
        42,
        13,
        23,
        265,
        181,
        84,
        83,
        119,
        221,
        128,
        160,
        267,
        38,
        99,
        285,
        114,
        282,
        129,
        272,
        72,
        133,
        292,
        88,
        95,
        87,
        186,
        201,
        140,
        60,
        299,
        98,
        43,
        20,
        65,
        18,
        278,
        7,
        107,
        207,
        97,
        298,
        269,
        80,
        238,
        233,
        289,
        61,
        115,
        200,
        247,
        21,
        138,
        243,
        288,
        100,
        291,
        284,
        169,
        198,
        108,
        248,
        258,
        213,
        280,
        136,
        132,
        16,
        196,
        40,
        154,
        226,
        295,
        69,
        27,
        270,
        144,
        180,
        109,
        54,
        162,
        163,
        152,
        220,
        151,
        168,
        215,
        75,
        79,
        137,
        126,
        68,
        260,
        203,
        71,
        225,
        223,
        141,
        197,
        216,
        279,
        195,
        77,
        64,
        283,
        124,
        51,
        275,
        147,
        9,
        222,
        262,
        286,
        177,
        188,
        156,
        120,
        46,
        183,
        253,
        110,
        93,
        287,
        266,
        161,
        185,
        14,
        59,
        184,
        172,
        194,
        91,
        297,
        3,
        232,
        230,
        277,
        29,
        191,
        165,
        273,
        117,
        101,
        158,
        251,
        176,
        2,
        281,
        153,
        240,
        33,
        204,
        37,
        62,
        26,
        241,
        231,
        1,
        228,
        4,
        113,
        48,
        170
    ],
    "Global Optimum": 0,
    "Algorithm": "Genetic algorithm",
    "Parameters": {
        "population": 30,
        "offspring": 30,
        "mutation probability": 0.0033333333333333335,
        "crossover probability": 0.9
    },
    "Fitness": 265605,
    "Solution": [
        234,
        45,
        166,
        57,
        210,
        127,
        290,
        58,
        118,
        175,
        134,
        92,
        0,
        67,
        182,
        224,
        52,
        96,
        78,
        81,
        145,
        227,
        174,
        146,
        142,
        250,
        148,
        82,
        264,
        17,
        104,
        217,
        8,
        159,
        259,
        294,
        10,
        49,
        218,
        211,
        149,
        239,
        271,
        171,
        214,
        254,
        157,
        44,
        121,
        125,
        187,
        122,
        202,
        268,
        6,
        205,
        5,
        15,
        237,
        76,
        179,
        229,
        263,
        105,
        25,
        106,
        47,
        178,
        66,
        70,
        242,
        22,
        255,
        150,
        89,
        249,
        296,
        236,
        103,
        245,
        199,
        19,
        36,
        139,
        112,
        24,
        252,
        32,
        244,
        173,
        261,
        55,
        219,
        164,
        212,
        73,
        257,
        31,
        193,
        130,
        41,
        209,
        53,
        189,
        256,
        235,
        56,
        74,
        28,
        135,
        116,
        123,
        293,
        131,
        85,
        167,
        206,
        34,
        12,
        30,
        192,
        50,
        155,
        208,
        94,
        90,
        102,
        143,
        111,
        35,
        276,
        63,
        190,
        274,
        86,
        246,
        11,
        39,
        42,
        13,
        23,
        265,
        181,
        84,
        83,
        119,
        221,
        128,
        160,
        267,
        38,
        99,
        285,
        114,
        282,
        129,
        272,
        72,
        133,
        292,
        88,
        95,
        87,
        186,
        201,
        140,
        60,
        299,
        98,
        43,
        20,
        65,
        18,
        278,
        7,
        107,
        207,
        97,
        298,
        269,
        80,
        238,
        233,
        289,
        61,
        115,
        200,
        247,
        21,
        138,
        243,
        288,
        100,
        291,
        284,
        169,
        198,
        108,
        248,
        258,
        213,
        280,
        136,
        132,
        16,
        196,
        40,
        154,
        226,
        295,
        69,
        27,
        270,
        144,
        180,
        109,
        54,
        162,
        163,
        152,
        220,
        151,
        168,
        215,
        75,
        79,
        137,
        126,
        68,
        260,
        203,
        71,
        225,
        223,
        141,
        197,
        216,
        279,
        195,
        77,
        64,
        283,
        124,
        51,
        275,
        147,
        9,
        222,
        262,
        286,
        177,
        188,
        156,
        120,
        46,
        183,
        253,
        110,
        93,
        287,
        266,
        161,
        185,
        14,
        59,
        184,
        172,
        194,
        91,
        297,
        3,
        232,
        230,
        277,
        29,
        191,
        165,
        273,
        117,
        101,
        158,
        251,
        176,
        2,
        281,
        153,
        240,
        33,
        204,
        37,
        62,
        26,
        241,
        231,
        1,
        228,
        4,
        113,
        48,
        170
    ],
    "Nb of functions evaluations": 400020,
    "Computational time in seconds": 713.535261631012,
    "Stopping criterion in evaluations": 400000
}